TCS_Benchmarks/redos_fix/corpus1_output_distinct_2327_2326_1_0.smt2
(set-logic QF_S)
(declare-const x String)
(assert (str.in.re x (re.inter (re.* (re.comp  (str.to_re "\u{0D}")) )  (re.++ (re.* (re.comp  (str.to_re "\u{0D}")) ) (re.++ (re.union (re.range "\u{00}" "\u{08}") (re.range "\u{0e}" "\u{1f}") (re.range "\u{21}" "\u{84}") (re.range "\u{86}" "\u{9f}") (re.range "\u{a1}" "\u{ff}")) (re.*  (re.union  (str.to.re "\u{2a}")  (str.to.re "\u{5f}")) ))) (re.*  (re.union  (str.to.re "\u{2a}")  (str.to.re "\u{5f}")) ) )))
(check-sat)
(get-model)