TCS_Benchmarks/redos_fix/corpus1_output_distinct_2327_2326_1_0.txt
[^\r]*
([^\r]*)(\S)([*_]*)
[*_]*